324
Lattice="14.8 0.0 0.0 0.0 14.8 0.0 0.0 0.0 14.8" Properties=species:S:1:pos:R:3:velocities:R:3:id:I:1:charge:R:1:forces:R:3 config_type=md total_charge=0 total_spin=0 pbc="T T T"
H        3.89286044       1.53302351       6.44065374      -0.19412353      -2.41418945      -1.74395273        0       0.00000000      -3.51353747      -0.86103248      -3.95183431
H        3.88860919       0.96582807       4.97498490       1.89112198       0.97274326      -0.88390144        1       0.00000000      -1.35544013       0.26391797       1.30830906
H        2.62764086       1.07518147       9.53255767      -1.16656488       2.61410008      -0.44329494        2       0.00000000      -1.67496564       0.41903445       9.38990549
H        2.86781036       1.70913542      10.87067270       0.11397429       0.23980553      -0.40601252        3       0.00000000      -0.62206257       0.16222075       2.91250279
H       11.17821192       9.08203798       0.00000000       1.70876199      -3.38665457      -0.61033247        4       0.00000000      -0.54342133      -4.02081626      -2.57904660
H       10.22024792       7.80411220       0.32055710      -0.13394159      -5.09951103      -3.03232716        5       0.00000000      -3.91835387      -2.40602768      -0.06381316
H        0.27350336       1.52656216       4.45929986      -2.16530518       0.49667039      -0.38375693        6       0.00000000       1.03398124      -1.36008361       0.95619165
H        1.74944205       1.84760713       4.78829718      -1.66852446       1.70509171       1.18585302        7       0.00000000       1.03990782      -1.17114521       3.60948946
H       10.54690302       0.45231204       3.63656985      -0.28929752       6.43591078      22.67659058        8       0.00000000      -0.44031386      29.41816689       2.22497689
H        9.49003539      14.25873424       3.53639864      -2.77596741      -2.69942815     -11.79621573        9       0.00000000      -8.67284369      -7.97143759      -0.99622018
H       11.81021496       2.06170540       9.88255153       9.64532501      -5.72015120       1.16759672       10       0.00000000       8.43297234       2.71656679      -4.85814404
H       12.62256567       2.72717377       8.73403182      -7.02241371     -35.50498952       1.39573359       11       0.00000000       7.55604623      -1.99121401     -24.72068193
H        9.50837588       4.85686894       7.07433010      -9.21307169       3.22323114      -0.49491566       12       0.00000000      -0.95354425      -6.30486472       2.39811734
H        9.69876905       3.23018115       7.07831753       2.49856036      -2.08468439       1.39627437       13       0.00000000       4.08597614       1.24214362      -1.52143617
H       14.10296773       3.92033504      14.49241662       2.60661135      -3.40448360      -0.47690330       14       0.00000000       0.16756612       0.59476148      -2.17630729
H        0.60220278       4.09905339      13.74972451       0.99045559       4.58541711      -1.29794760       15       0.00000000      41.78457741       0.60155965      -4.89457009
H       14.04196607       8.16278570       2.90405899       0.33084288      23.00954459     -11.98798203       16       0.00000000      27.81093647       0.83757525      -1.70993657
H        0.36075775       7.39552744       3.45016087       4.84247245       1.63195063      -1.52627934       17       0.00000000       2.37836420      10.22226778       1.31769066
H        8.49516530      13.52093801       1.44185009      -1.06619241       6.56276198      -6.04160727       18       0.00000000      -3.16964515       1.12137504      -1.29631068
H        7.96014881      12.58844977       2.60274120       3.87356461      -1.34392863       2.83909310       19       0.00000000       2.07533271      18.00828611      -1.06716832
H        8.87073809       3.33555279      14.45663714     -23.66331651      -5.86215831      -0.50914959       20       0.00000000      -1.46508810      -0.54258321      31.41892630
H        8.58481051       3.07752412       1.12214454      -0.43041356       5.46534530      -0.11654680       21       0.00000000      -0.13534861       0.96406075       3.24843988
H       10.24450753       6.24645662       5.38207630       0.30741037      -2.74778627       4.61458183       22       0.00000000       7.58165306       0.35678156      -1.43807978
H        8.72711401       6.28771112       5.43252326       1.17301439       3.64014646      -1.42175472       23       0.00000000      -1.97334377       1.35767033       2.26594729
H       11.10265488       1.30358440       7.00650186      -3.18362058       0.76231049       2.47816079       24       0.00000000       1.56103695      -2.74886574       0.52160565
H       10.36277785       1.12213133       5.63897238       0.82896277       4.89596665      -1.49195892       25       0.00000000       1.99060513      -1.50432224       2.67920873
H        9.43922622       9.92565509       0.67977319      -0.52603262       1.02087201       4.41660275       26       0.00000000       4.19877198      -9.83301722       0.15857069
H        8.36090985      10.61771815       1.56312528       1.14241872      -2.76136416       8.40582282       27       0.00000000       6.64120678       3.70527290       0.59866530
H       14.43626385       4.86010943       6.07895361      -1.12587009      23.20829311      -6.50327723       28       0.00000000     -29.27755123      -0.95257569       5.38452100
H       13.77091797       3.68606759       6.87565295       0.80398428      -4.32475114      -1.35825436       29       0.00000000      -5.93356461       0.42655499      -1.64238206
H        9.11593340      11.88490753      11.75109942       4.29436176       0.00554607      -0.61307268       30       0.00000000      -0.25263919       4.91741614      -0.89141095
H       10.23088502      12.96077346      12.16312882       1.75793277       1.71266222       1.33767355       31       0.00000000       1.57592566       3.70008648       1.38388587
H        7.19523074       6.20237043       9.52774876      -0.01679559      -1.09440536      -1.02019619       32       0.00000000      -1.18350670      -0.01062744      -1.45946196
H        7.56319708       4.72905472       9.82224889       6.92914268      -2.72610241      -3.50913524       33       0.00000000      -5.61215617       3.34323268      -3.56500665
H        4.71621056       5.43898025      12.30171896      11.26923858      -2.37483656       5.57847170       34       0.00000000       4.93698946       4.89776854      -6.11628591
H        5.96767005       5.92147045      11.41087620      -5.30734716      -1.69789889      -0.14776787       35       0.00000000      -0.14892076      -2.71838943      -2.94243560
H        0.95452873      14.67871304       6.78096617      -9.36386220      -0.14756390       1.18606680       36       0.00000000      -0.55899262      34.22375638       2.99813088
H        1.87389868       0.97010559       6.47960492       3.54547220       0.24307439       2.45069803       37       0.00000000       0.52011938       2.27441539       0.87124729
H       13.82409007       7.60633247      12.28347419       4.96418259       4.18848181      -4.87679980       38       0.00000000      -8.98136482       3.08931054       4.69691076
H       12.86005730       8.93097957      12.48910251      -5.40423066       6.85391423       3.06308433       39       0.00000000       4.42777334      -4.04004614       7.33206152
H        3.20446929       7.53605062       3.62462734       1.69184514      -1.88449616       1.66623322       40       0.00000000       0.78124353       3.44239210      -1.59180592
H        3.00215399       8.93565644       2.77648823      -1.15129214       0.45690568       2.50502034       41       0.00000000       0.79446183      -3.83432491       0.56773923
H        6.26092848       6.97126992       1.01581373       0.80397727       9.95841835       9.04738041       42       0.00000000       8.12549253     -10.79528209      -1.94503871
H        7.11845685       7.05867521       2.35433464      -2.68648935      -6.32979769      -5.62373244       43       0.00000000      -5.67136120      -8.20611474      -2.68391626
H       11.11528524       0.46360680       1.17680122       0.12676475      -3.99734876      -0.08031713       44       0.00000000      -2.54006103       0.45889103      -0.57296032
H        9.85393605       1.06300432       0.47759097       0.32800195       2.34375683      -0.09000862       45       0.00000000       0.56466459      -0.59008268      -0.32525595
H        4.89475143       1.28873423       8.41203809       1.33622019      -1.56009200      -1.93007262       46       0.00000000      -6.40659731      -0.39791158      -2.68988411
H        4.03683480       2.55144183       8.28220160      -0.01803447       0.49604732      -0.19951171       47       0.00000000      -0.32184044      -0.21993054       0.94019089
H        9.26954548      10.26488107       5.54893542      -2.35382644      10.10656634      -6.83572129       48       0.00000000      -6.19469603      -4.32369897       6.04933738
H       10.36142893      10.72649722       4.69458648      -3.21330367      -5.02051710       0.73912399       49       0.00000000       0.64780888      -7.08405165      -2.24927330
H       14.09208290      13.13359689      10.56411264       7.10606079       5.17055913      14.99943744       50       0.00000000      10.98502321       8.92394610       6.64068862
H       13.34930694      11.99946280       9.99316024     -39.47491711     -12.64571215      -1.69085691       51       0.00000000      -2.25633415     -47.03585264      -9.70812016
H        3.38989534      12.96889654       2.86929039       0.23474079       0.09056969      -1.51073467       52       0.00000000      -0.58305651       2.73801835       0.16593460
H        3.54128333      13.64516432       1.47304176       0.47651500      -0.87841067      -0.87579288       53       0.00000000      -0.64653871      -5.60799778      -0.03778636
H        6.74293013       3.09380816       2.78987328       2.90924401      -6.30834644       0.76792163       54       0.00000000       1.98906429       3.30487152      -2.57288572
H        6.79138324       4.54185355       2.01079158      -2.51489757       0.99794522       1.54106351       55       0.00000000       2.30720433      -5.95637064       0.54188354
H        5.18667137       3.71145660       5.26739241      -2.85315898      -7.51946830      -1.95307157       56       0.00000000      -2.71200677      -1.99305919      -7.62369078
H        4.07675524       3.20529013       4.16335453       4.17105930       2.04554673       6.66549846       57       0.00000000       8.60047031       3.13854533       2.24914215
H        6.32704977      11.34916090      13.35276089       0.95333813       1.58709108       3.17589840       58       0.00000000       1.84196199       1.07234316       3.36268255
H        7.35412603      10.78612639      14.43339620       7.22253052       2.40283979       5.11066074       59       0.00000000       3.52327045       4.85601763       0.21745575
H       11.30815486      11.24782986      13.61195972       0.81814583      -2.98718053      -4.19832520       60       0.00000000      -4.24013042       4.91254651      -3.51039957
H       11.18071203      10.11794535      12.45961262       3.19421860      -0.30440463      -5.98647053       61       0.00000000      -6.38937597       3.23056612      -0.15666665
H        8.11168074       8.45849503       9.41273928      -4.49388694      -6.47095537       6.00015987       62       0.00000000       5.75414197      -4.03841949      -7.50919606
H        7.03992803       9.03717919      10.19050206      -0.95362990       2.88628924      -3.87136146       63       0.00000000      -3.01572083      -0.84483616       4.17682689
H        5.69741068      11.81175893      11.14920747      -3.77436338      -1.93733382      -1.97158129       64       0.00000000      -1.06495787      -3.18745434      -3.68495004
H        5.04773660      12.88423011      12.03994516      -3.43106645       0.48249981      -3.55405042       65       0.00000000      -1.95514499      -1.76540307       1.66677578
H        3.72676784      10.29258041      13.10776368      -7.74745839      -1.43037717      12.93256459       66       0.00000000       4.91043551      -6.05789602      -3.17166053
H        2.23636471      10.03326202      12.90629223     -10.31500368      -1.88275038      -5.62666294       67       0.00000000      -0.89083617      -8.11677479      -9.49773694
H        0.54861443      11.35828215      13.49965388      -3.00409085     -12.54249620     -14.47497267       68       0.00000000      30.75565421      -1.86864936       3.97833380
H       13.85161882      11.26833083      13.03603674      -0.57518105      -0.71920233      -0.34915730       69       0.00000000       1.21438580       0.38946660      -0.73486113
H        5.29672972       4.68943468       8.67412461       4.96645256      -0.23201169       1.86241745       70       0.00000000       2.10340609       2.68498044      -0.38002251
H        3.85613007       4.98531732       8.06127542      10.17763215      -4.19876880      -0.92711028       71       0.00000000      -0.75271911       6.29413129      -8.82234314
H        3.46212811      14.26914911      14.25649844      21.73212545      -2.66679429      -3.82271901       72       0.00000000       0.80625093      22.76725973      31.84951890
H        4.36223058       0.23841636       0.45248308       0.71547446       0.13656779       2.37934160       73       0.00000000       2.42961860       4.45759675       2.25352422
H       13.12258465      14.03407154       4.49808204      -0.38531761       5.18212798      13.19328419       74       0.00000000      -5.90970594      37.39084129       1.95188116
H       14.13408466      14.38607141       3.49484866       1.19652844       4.37150417     -24.45830696       75       0.00000000      -5.90471897      21.72494275       0.09506050
H        1.65128218      12.67608230       5.63458913       0.38159208       0.36973879      -2.56925574       76       0.00000000      -1.46657544       1.13881861      -0.94100790
H        2.56207439      11.66489743       4.96118244       4.41259475      -0.49079649      -5.07294355       77       0.00000000      -1.74706792      11.03894123      -1.41804252
H        3.71547085       5.16509842       3.97495522      -5.94347446      -0.64663204       8.27471030       78       0.00000000       6.12078548      -7.72145028      -0.42320756
H        3.38251456       6.25969789       5.07715410      -4.23691167      -0.07034547       1.80058550       79       0.00000000       1.07522459      -5.22335819      -0.07857599
H       11.50518715       4.52613846      13.99317162       9.25813280       0.31505924       2.65724579       80       0.00000000       6.80334312       3.17141746      45.07556173
H       10.76524515       4.00257377       0.28205605      -0.39838703      13.17555121      -4.58377495       81       0.00000000     -12.23472010      -5.01155975       3.74212023
H        6.80021310       2.55005918       7.35986309       2.87902058     -10.32918909      -0.59888716       82       0.00000000      -1.39445711       1.07975800     -11.17926989
H        7.66562336       3.56851857       6.72115594       2.33821426      -1.83930629       1.46170092       83       0.00000000       3.25027481       1.28070117      -1.61268873
H        7.64229927       2.78873059      12.64075554      -1.61160552       0.23893574       1.27268677       84       0.00000000       3.39081725      -0.15288153       0.92556092
H        8.75560000       3.32264940      11.71368498       0.96329558       3.96232462       0.49303492       85       0.00000000       1.19728531       0.40107272       5.49476007
H        9.80947421       5.13728647      10.33475011      -9.10048517       1.25232838      -1.02414079       86       0.00000000      -1.95437994      -4.50839149       1.56498466
H        9.36382591       3.88327813       9.53065059       1.34933938      -1.01743025       1.01326489       87       0.00000000       2.64127627       0.80817704      -1.03375458
H        1.37589719       9.88646537       8.34014540      -0.46667493      -0.66328022      -0.19086914       88       0.00000000      -0.74199062      -0.55223255       1.63827203
H        1.03303245      10.67499802       9.69388889      -4.94667877      -0.21189354      -2.37305072       89       0.00000000      -1.02981863      -5.37658773       5.23095253
H        5.11994431       8.82657811       3.15321787       0.03100243      -1.23872004       4.22487466       90       0.00000000       2.45032810       0.47193990      -1.05692347
H        5.37596699       9.45661144       1.80370973       0.30210813       3.15326484       3.59097778       91       0.00000000       2.03937507      -1.81099604       1.92062751
H        1.55947377       5.03729855       4.52620750      -1.23353741       0.19725044      -4.80399727       92       0.00000000      -1.04274056      -1.38138791       0.59653332
H        0.77083733       3.69670743       4.68316099      -2.11618398       0.13839123       0.50543240       93       0.00000000       1.73322259      -1.74256294      -1.06305401
H        6.05805829       0.45626873       3.73805596      -2.25593648       5.29061529       0.38660748       94       0.00000000      -9.26565866       0.37358581       3.48902150
H        4.94825618      14.20991497       3.24594894      -0.74738518      -1.32638402       8.96695037       95       0.00000000      -0.44819487      25.65793953      -0.68373800
H       12.52290869       5.79300823       7.18869650       3.36408620      -3.30887842       2.29124728       96       0.00000000       5.10293881       2.71094753      -2.08974173
H       12.18826609       7.33789008       6.72232740      -8.30097339       9.86959468       0.11219218       97       0.00000000       0.63343690      -9.06109249       5.34462535
H        7.40577635      14.20981056      14.44107814       2.49664728      -1.34457500      -2.22638144       98       0.00000000      -0.77200773       1.93650729      -0.66291118
H        8.17102885      13.31928920      13.39993544       0.52982626      -0.17933371       2.99503827       99       0.00000000       2.28250075       0.63944658      -1.09621908
H        9.28402813      14.17829541      10.31854047     -10.23794021       4.78304221      26.40157211      100       0.00000000       0.42244044      30.02726181       5.30504649
H       10.38632660       0.30532259      10.94926091      -8.59228305      -8.70563276       4.92173037      101       0.00000000      -6.65394940       0.85691273      -9.14590457
H       10.38300958       3.33286413       3.85131318       2.45384344       8.46857042      -0.43662883      102       0.00000000      -0.82700638       1.96520078       3.13945930
H        8.89934640       2.78045602       3.55806266       1.27636113       2.76655572       1.43346826      103       0.00000000       4.83740228       0.61413698       1.01370588
H        3.07097203       7.11498847       9.63857443       1.46485263      -0.37680729      -3.01653827      104       0.00000000      -1.49404600       1.07971479      -0.69135802
H        3.91175949       7.10013173      10.85074352     -14.37224379       6.68394629      12.30212896      105       0.00000000       6.85960883      -9.41092522      18.57362310
H        0.82596211       5.61295528      11.45955703      -9.37330008      -2.10476026       4.61779685      106       0.00000000       1.26756829      -4.57875849      -9.30907131
H        1.67578655       6.52403295      12.54145101      -7.72999551      -1.30397172      -5.25354256      107       0.00000000      -1.46061967      -4.12061587     -10.87488359
H        3.19688081       5.42763226      13.54459706      10.29565279       1.43977542      -2.00181588      108       0.00000000      -0.98585617       4.25412426       6.18740755
H        3.72111920       4.00056068      13.87186601      12.83622586      -1.35248187      -1.46299351      109       0.00000000      -0.99454708       1.86558043     -16.63654739
H        0.74919804       8.41646386       7.22373960       0.52274003       0.90993101       0.28548835      110       0.00000000      -0.79611898       0.60905055      -3.05663243
H        2.12363051       8.99701058       6.51451808       0.96583492       1.18773460      -7.09717656      111       0.00000000      -1.64406943       1.33388639       1.11073766
H        0.60193774       6.05692567       8.72124077       1.70743407      -1.10913369      -2.83126485      112       0.00000000       0.13323082       1.18581765      -0.58085062
H        1.50367691       4.82905219       9.09393272      15.41540276      -1.38826289      -1.90831849      113       0.00000000      -1.40972415       8.19855796      -6.13429769
H        3.74663928      12.98494415       6.21304540      -2.92156142      -1.24347570     -15.99128690      114       0.00000000      -4.53596402      -6.54287664      -2.07588695
H        4.86540218      13.78636262       5.69541979      -0.35676245       2.22863280      -0.14654405      115       0.00000000       0.75784744      -0.98047580       2.60348426
H       14.49373301      12.61331419       6.96055392      -1.21493212       6.10054860      15.10502012      116       0.00000000      42.33921703      -1.86705413       2.26938958
H        0.97177777      12.09817387       7.75609681      -2.57032681       0.68312335      -2.17547026      117       0.00000000       0.93347254      -3.68552502       0.57709741
H       12.43746489       6.34891876       2.32438707      -0.68182449      -5.34218682      -0.27337100      118       0.00000000      -0.62323593      -1.91713018      -1.03522590
H       11.82493045       7.77223463       1.89238984      -0.91587599      -0.89002385       0.48645753      119       0.00000000       0.77031725      -3.53293194      -0.09554704
H        7.16838452       1.90195189       5.16875050       0.26989317     -12.23732735       0.89273873      120       0.00000000       2.03312444      -0.21023277      -8.82359923
H        8.19981685       1.04465284       4.31452364       3.00180197      -2.94294948      -1.83200363      121       0.00000000      -9.46132991       1.31279125      -1.52420281
H        9.60929478       7.56453863       7.26137972       1.48278261      -2.50919358      -3.81208251      122       0.00000000      -4.84251933       1.54468803      -1.89610245
H       10.41675647       8.45016287       8.15435661       1.67460884       3.55725098      -0.21869593      123       0.00000000      -0.20693394       1.73535670       2.78013512
H        0.08622691      12.64439640       2.47276371      -1.12824686      -1.01417237      -9.66201197      124       0.00000000      -0.23524704      -2.44320848      -2.18341797
H        1.14749166      12.98434812       3.46324090       3.79805399      -0.35832595      -4.00525619      125       0.00000000      -0.65459584      14.67209167      -2.37404574
H        2.98990755      12.32783037      12.93503637       1.96052148      -0.85007843      -0.85026562      126       0.00000000      -0.01580549       2.06858794      -3.78975928
H        2.45950238      13.60408680      12.23281681       7.37921450      -1.96926755     -24.53401795      127       0.00000000      -4.03059091       8.81903340      -8.84114588
H       14.12649081       7.78898927       9.82867838      -1.18361163      16.13705663       0.88185380      128       0.00000000       1.05279161      -0.93802553      11.78959710
H       13.37399877       7.21341473       8.57837229       9.26862354      -2.44131625       2.11034858      129       0.00000000       5.14652985       7.79383586      -1.64539582
H       14.18596080       0.64114746      13.99893412       1.21595719      22.94442151       0.44540622      130       0.00000000      15.44562609       0.64173860      25.14502805
H       13.77176576       1.65627755      12.94502087      26.89149425      -5.55529848       0.11690181      131       0.00000000       5.97898016       4.20418717      -4.94993087
H        2.20498934       2.61976195       2.62456871       5.88644871      -1.23462375       3.41792743      132       0.00000000       4.01855507       6.11083918      -1.22129820
H        3.30673553       3.18056241       1.58328439       0.15468959       1.81896933      -0.80247247      133       0.00000000      -0.16879395       0.70688649       1.36140027
H       11.49542384       9.40831383      10.54228096      -5.14658479      -4.10272019      -6.15040898      134       0.00000000      -7.16852022      -4.55911581      -3.47635956
H       10.51155245       8.17283522      10.78157050     -10.00651868      -3.63583473       5.79412094      135       0.00000000       7.52154305      -7.62900957      -3.32338952
H        2.14707109       6.72842303       0.13862696     -11.47298415      -0.36170141      -0.32951046      136       0.00000000       0.26375825       0.38429087      34.48169120
H        3.41115633       7.60573097      14.58024478      -6.78958299      -1.87664026      -3.06817128      137       0.00000000      -1.29206919      -3.13188114      -7.59500901
H        6.79693121       1.00764386       9.61817339      -3.37136154       3.74902476      -0.79762514      138       0.00000000      -4.09152441      -0.16730999       5.30515450
H        7.90949709       1.37423701       8.81555194      -0.69642210      -2.77519238       4.42883728      139       0.00000000      26.42546801       0.11050067      -3.09309838
H       11.66167509       2.28082848      13.18589760       4.45645737      -5.62079847      -1.06664484      140       0.00000000      -3.72830501       0.63042380      -6.77491175
H       10.31181892       2.80948758      12.62282254      -2.08427773       0.01640078       1.49179567      141       0.00000000       4.96567432      -0.86195454       1.50769903
H       11.79756767       6.11697735      10.71323392      -0.38504969      -0.91432670       1.46469883      142       0.00000000       2.95515426      -0.19906787      -0.20408802
H       11.50114064       6.25743053       9.17328332       2.34741627       2.47117621      -1.00786138      143       0.00000000      -1.40473961       1.60125810       1.95917930
H       13.54489173       1.43082259       1.51918633       0.46622505       5.55097727      -0.91429757      144       0.00000000     -17.12365945      -0.25386152       1.39666930
H       12.62188274       1.33625811       2.73193200      -1.54064934      18.88028604       0.87422012      145       0.00000000       1.21213004      -1.18265210       4.50691164
H        5.47764394      11.84799556       7.28027231       0.79863251      -3.86457211      -2.96434393      146       0.00000000      -1.35499569       1.87806169      -5.13627140
H        5.15436990      10.68845542       8.18541865      -1.61998390       2.35853820      -3.06254226      147       0.00000000      -1.49791440      -1.94649579       3.74553453
H        2.80619078       6.70080850       7.32793757      -1.99293480      -0.50359064       0.50951998      148       0.00000000       0.03428821      -1.82237831      -1.88291523
H        4.31601015       7.02454678       7.27020148      -1.14383203      -1.35407630      -0.06343470      149       0.00000000      -0.05075524      -1.10518280      -2.29031299
H        3.28917590       9.46252380       4.82491473       1.77698458       2.24822562       3.09940828      150       0.00000000       0.79074331       3.48977240       3.22922563
H        3.75417570      10.24622698       6.24126126      -1.76457590      -3.35196285       0.00874874      151       0.00000000      -0.10862830      -2.86113186      -5.62639445
H       11.07875646       8.83563455       4.87052637      -2.79495640       6.06355135      -0.46770471      152       0.00000000      -0.83374378      -5.07033768       2.67700258
H       11.98245150       7.72056040       4.25236084       1.35783742      10.26687530      -1.57861848      153       0.00000000      -2.46404054       2.46528134       3.75885428
H       10.10256307      11.84189739       0.49075531       1.17170454      -2.15119278      -2.64794457      154       0.00000000      -2.19994477       6.94836844       1.30874355
H       10.17816431      13.42810462       0.31113560      -0.26170365      -2.91610567      11.22332047      155       0.00000000       9.13669033     -26.83723298      -0.43139161
H        3.19068792      10.41537300       0.38704562      -0.50788374       2.12416099       4.31005451      156       0.00000000       1.19631588      -0.67051403      -5.70102123
H        3.76958347      11.24116355       1.59283666      -0.92770436      -1.09622036      -0.23406560      157       0.00000000       0.07658047      -5.28387201      -0.61759301
H       13.57071970       4.77212118      12.39175561       3.37147055      -8.96890749      -5.68706113      158       0.00000000     -15.86223950       1.37463681      -7.39272379
H       12.20774495       4.34783790      11.67800087      -4.64918407       2.59751590       1.24103024      159       0.00000000       2.89161944      -1.66102338       2.85313931
H       13.99201910       4.34624223       3.05150181      -3.12603726      19.43205028       6.67596149      160       0.00000000      21.11690998      -4.64130562       4.96179626
H       12.94239252       3.90227012       1.94260442       0.05374216       4.47477910       0.83378049      161       0.00000000       2.08865353      -0.58089412       1.51488369
H        1.06346135      14.76759035       1.27582904       0.63477504       0.46842054     -17.09610402      162       0.00000000      -0.45677577      41.26246256       0.43558922
H        1.52731942       0.86708575       0.18476829      -0.07647657      -0.21147908       0.59751677      163       0.00000000       1.52598815       1.82569680      -0.05496110
H       13.18595587       9.50275746       9.15124397      -6.88737116       2.94156770       5.25942015      164       0.00000000       7.30334500      -7.15192578       1.91028340
H       12.38999316      10.55805616       8.49699439       5.13486193       2.40321220      -1.60143280      165       0.00000000      -2.18194631       6.39972576       1.55152865
H       12.34183994      11.64223631       3.29869370      -0.26965364      -5.44682936       3.55128243      166       0.00000000       3.87116935      -0.84926641      -1.23895537
H       11.44332800      12.68780830       3.99606490      -0.73739435       0.24686660       2.25057802      167       0.00000000       1.44231656      -1.16069921       0.08192867
H        8.76286953      10.07965449       7.59141783      -2.77793807      -0.36907478       2.07031030      168       0.00000000       1.79305688      -3.64706277      -0.31973555
H        7.46902378      10.78448735       7.18352469       0.46311783      -2.00179100       2.83065609      169       0.00000000       1.94413978       0.75107086      -1.92527371
H        1.58120526       4.88149855       1.68773547      -1.22140614       0.54930604       3.99917825      170       0.00000000       1.92229309      -3.78889631       0.64066878
H        0.21863330       5.44362601       1.50958665       0.95726552      -0.22460566     -10.40972750      171       0.00000000      -1.76381189       0.99025322       1.44446531
H       12.38137749      14.48384838      12.64814820      -3.74197262      -3.79456203     -12.76837169      172       0.00000000      -7.46301287      -8.97800243      -4.97542451
H       12.17502423      13.56111878      11.39262031       3.25037733       5.07743108      -2.94691025      173       0.00000000      -2.12355449       4.75095237       4.19930729
H        8.34824579      10.37923691       3.82085876       4.63985348     -13.28507726      -6.46409857      174       0.00000000      -5.19288113      12.80291201      -5.93716366
H        7.03258668      10.30522612       2.94894621       0.31980040       1.49456729      -3.26229007      175       0.00000000      -2.18408595       1.31548247       0.62497767
H       12.20762549      11.97948123       0.95077114       0.11600926      18.76631256      13.52311961      176       0.00000000      13.22881345       2.06918303       2.40929794
H       13.29524913      10.98280424       0.91812861      -0.47629578      -1.69506767      10.08751938      177       0.00000000      12.25533585      -5.95108427      -0.56731767
H        6.52776255       0.14342128       1.63366388       2.06839861      -7.27729977      -0.46167723      178       0.00000000      -2.04419263      -0.61911618      -0.02391827
H        6.65813138       1.61462478       1.13286878       0.63095935       0.93240648       0.72563993      179       0.00000000       1.83186619       0.13920962      -0.10244084
H       12.32912952      13.20441353       7.39206885      -5.02879643      -6.94948650       0.78034115      180       0.00000000       0.48885159      -9.08703279      -4.06651800
H       12.56327238      12.20822946       6.09741077       3.60913780      21.10506027       2.59722548      181       0.00000000       2.84740261       7.95088436      10.24786154
H       13.07404010       1.64009615       6.13336857       0.85687505      -0.17260628      -0.08559191      182       0.00000000      -2.31370865       0.21778552       0.07431357
H       14.41506208       1.59034819       6.93146041       0.49873982      -1.02973024       0.31612857      183       0.00000000     -20.56764480      -0.50128460      -0.62487274
H        5.55919202       8.97010328       7.15801720       1.70856688      -2.34546174      -0.49711774      184       0.00000000      -0.30808709       2.14109871      -3.02001719
H        6.15529592       8.04890670       8.17598598      -1.69933295       2.28271844       2.56366348      185       0.00000000       1.96052805      -1.67292023       3.03210019
H        5.32799491       3.30927621       0.67893335       2.04641022       2.39899303       1.36777447      186       0.00000000       2.13795062       1.86608885       2.22506275
H        4.72689998       2.30396970      14.57205491      35.30298732      -1.97880639      -0.34831928      187       0.00000000      -0.59033092      -0.23996335      22.07303354
H        5.89054747       8.82106464      14.12177442      -5.79136587       1.53973306      -4.83449209      188       0.00000000      -3.22838640      -3.14089487       3.78298569
H        5.51872856       7.45789837      13.42154786      11.09998279       9.03600181      -4.15927196      189       0.00000000      -3.07779642       6.21010769      22.62512674
H        6.22458021       6.83424384       5.72466831       9.24920127      15.54687562      -9.30018667      190       0.00000000      -8.47054323      11.04191428      14.29826641
H        6.29243326       5.54904942       4.95857579       8.54561009      -1.15999506       4.77491258      191       0.00000000       5.41458842       9.56323241      -0.91410162
H       14.46293446       3.31362175       9.90196107       1.39681894       4.59960907      -0.40730551      192       0.00000000      43.57480216       0.98182459       0.55476647
H        0.96747611       2.47352158      10.20967994      24.34848854      -0.39967992      -1.23034944      193       0.00000000       0.54508907       6.33255148      -6.70890270
H        9.90755575       5.85354904       0.35183137      -0.59722575      -1.70262372       4.39539836      194       0.00000000       7.43598237      -2.78313235       0.02866271
H        8.51482320       6.34146720       0.65589618       0.13214693       4.65097178      -6.49560830      195       0.00000000      -8.72179173       0.58247733       0.43147783
H        1.95811478       8.64605094      11.17577148      -4.57636172       0.09395370      -1.81981204      196       0.00000000      -0.82650503      -3.59906521       1.27391992
H        0.51897446       8.96434103      11.85542177      -4.07638476       0.30041411       0.04454159      197       0.00000000      -4.01731321      -3.16569159      -2.05887936
H        8.88329903       9.59868814      11.49994574       1.22075057      -2.45632586       4.15473786      198       0.00000000       3.86043412       1.24994755      -2.88652262
H        7.77629892      10.18568411      12.39182697       2.71985246      -1.82925067      -2.40596319      199       0.00000000      -1.80194727       2.92318231      -3.18621723
H       11.84467376       4.55632604       5.30212240      -1.13570067      10.03099379      -1.21635307      200       0.00000000      -3.57716956      -0.81015810       4.46865221
H       12.00121717       4.78508881       3.91501647       1.05984194     -14.51930680       0.36123249      201       0.00000000       0.65434002       1.39758491      -4.65000845
H       12.53922510      14.50890064       8.68797702       0.91697978       0.40953904       1.05546267      202       0.00000000       0.83945584       1.30895825       0.21369494
H       11.01207006      14.56900169       8.79097707      -0.02676893      -5.62646093      14.45863038      203       0.00000000       5.29989736      -0.74790256      -4.47133761
H        0.07050209      14.61505985      12.14156738       6.12027537       2.84667443       0.57535582      204       0.00000000      -2.82885477       4.78042682       1.20685216
H        1.16955494      14.53397998      10.96065406      -5.81688439       1.92711345     -23.48770931      205       0.00000000      -0.81762313     -14.07784246      17.29085175
H        3.30534671      10.90512214       9.21756194      -4.63994999       0.10545819      -6.61334806      206       0.00000000      -1.79583931      -5.31337150       0.30471402
H        3.89935919       9.48240119       9.68406981       6.86902011      -0.25601311      -3.32899661      207       0.00000000      -1.30805256       6.72556642      -0.62030779
H       13.54646988      10.36901457       5.59324394      -2.09742675      -2.61499061      25.44088874      208       0.00000000      33.11313650      -3.51889957      -0.72820521
H        0.06795027       9.57854992       5.15901748       3.14015413     -21.85345116      -6.38284849      209       0.00000000       5.46763849       5.89368608      -0.08140861
H        3.93016820       3.89012349      10.15046070       8.88361671      -5.38648184       0.67328183      210       0.00000000       0.62591857       3.53005803     -13.58948833
H        3.68410303       3.90430354      11.70272864      -1.79879443      -0.86965456      -1.02264055      211       0.00000000      -0.66977561      -0.32720428      -2.09857889
H        7.78547115       0.02844252      11.30097709       0.34858244       1.14148458       0.81977623      212       0.00000000       0.54492867       2.93423945       1.87030285
H        6.50943803      13.99964009      11.22337231     -19.37665654       2.24934446      14.81413815      213       0.00000000      -2.58897470      31.61805253       4.16770718
H        5.26026151       2.62251156      11.75403884       0.39320612       2.19711551       1.59609689      214       0.00000000       2.90351572       0.51483355       5.30708853
H        6.12990606       1.38132880      12.16028598      11.02263713       1.05876128      -0.14304658      215       0.00000000      -0.88696023       1.09907259       2.03815203
O        3.35972329       1.55610567       5.58174568      -2.76884080       0.39520294       2.13111305      216       0.00000000       3.89107472       0.47436051       0.68324971
O        2.20819586       1.10598634      10.45716726       2.70612114      -3.13519936       4.40709005      217       0.00000000       2.07217528       1.72484333     -16.13434707
O       10.79497388       8.50525799       0.68753005      -0.99758132       6.78412261       4.31931236      218       0.00000000       5.22501992       9.95783690       2.84216300
O        1.08031867       1.91604536       4.11262302       3.07889859      -2.86422767      -1.00315570      219       0.00000000      -0.00950162       1.66849650      -4.58350377
O       10.09524110      14.59567399       4.21683516       3.46814121      -6.81597361      -8.93611410      220       0.00000000       7.80622743     -24.17003445      -2.83650380
O       12.34516248       2.84525820       9.60291443      -1.05855016      38.70271932      -2.81758040      221       0.00000000     -14.17691343      -0.20486723      30.32898912
O        9.31475692       3.98697845       7.56627621       6.47806381      -3.35610212      -0.73486726      222       0.00000000      -1.86572822       3.10045232      -2.72612542
O       14.47299958       3.82202632      13.59834139      -3.57945140       0.28835059       1.88153754      223       0.00000000     -40.58555090      -2.16646765      10.73586724
O        0.00000000       8.32784713       3.44986883      -5.44605960     -22.87113414      16.04377425      224       0.00000000     -27.92758586     -12.94998164       1.82734815
O        8.16654492      13.56165986       2.37633574      -1.87039871      -2.80190839       5.32868768      225       0.00000000      -0.77857998     -18.20080042       0.64315361
O        9.21357398       2.85737894       0.41987271      23.99508681      -1.40954149       1.24269361      226       0.00000000       3.60453906      -0.43941335     -34.21161535
O        9.51990764       6.35219695       6.00415286      -2.55314608       1.37944676      -5.74585448      227       0.00000000      -8.61119459      -2.70114488       0.87000941
O       10.74761235       1.78903493       6.24799346       1.70582331      -4.58753504      -1.15063477      228       0.00000000      -4.62138754       2.94689587      -2.76067147
O        8.84524652      10.67789884       0.67469021      -1.53197361       4.61878075      -9.62559000      229       0.00000000      -8.06475952       3.47135682       5.03554664
O       13.64277254       4.65063242       6.69615702       2.48256773     -15.80143355       6.08823543      230       0.00000000      21.64353026       1.70439367      -6.29136379
O        9.31141624      12.84864418      11.86456815      -5.84799625      -1.06106054      -7.51009232      231       0.00000000      -7.39328238     -10.61543618       0.34792002
O        6.80825689       5.30840312       9.49539097      -4.57949957       4.61880088       4.84079758      232       0.00000000       6.20853254      -2.56017155       6.44178397
O        5.25064363       6.23128312      11.98218027      -4.53158031       3.82975404      -6.35691434      233       0.00000000      -5.35650381      -2.38682219       8.16811649
O        1.04533452       0.81112306       6.96713311       2.67925385       1.08921692      -3.11630715      234       0.00000000      18.11527659     -37.50011806      -0.50913157
O       13.40024312       8.39886800      11.88732696      -2.63616825     -10.44509834       6.78908470      235       0.00000000      11.45319958      -1.72941092     -10.12517872
O        3.49982905       8.48295682       3.49561449      -0.01701314       0.79324999      -5.58697023      236       0.00000000      -2.35903851       0.04956396       0.74257112
O        6.82254341       6.36699181       1.67989853       2.31325665      -5.81069267      -4.43667383      237       0.00000000      -4.75411320      17.48923719       0.81879097
O       10.25960650       0.22393637       0.76419628       1.09652295       1.90699543      -2.45825356      238       0.00000000       0.37119601      18.77788516       0.97000021
O        3.95694737       1.57297846       8.19552931       0.83206571       1.31521800       2.67761095      239       0.00000000       6.23194019       1.80106847       2.84929639
O        9.80912795       9.91233448       4.81830783       8.16841236      -5.27806085       3.06927904      240       0.00000000       3.07927882      16.73204300      -2.60714826
O       13.27048530      12.89162426      10.14815331      35.61114612       5.54961642     -13.66268050      241       0.00000000      -9.71859129      44.65510640       3.02297174
O        3.98427216      13.05204964       2.10692811      -1.08360265       3.04095387       0.93288118      242       0.00000000       0.90809732      -6.07497383       0.08397281
O        7.02736286       3.55562891       1.94256172       0.55977683       5.63696725      -3.77817829      243       0.00000000      -7.48826980       1.07352261       0.67385778
O        4.96151767       3.71949713       4.28669035      -2.67618411       4.46202390      -4.78592753      244       0.00000000      -6.42198525      -2.46837461       3.42665678
O        6.66718065      10.54685015      13.80012041      -9.94656301      -4.17792715      -7.24052281      245       0.00000000      -4.60657480      -8.32293751      -6.00761747
O       11.64065379      10.40651404      13.26477528      -5.73166560       3.96068589       6.86733027      246       0.00000000       7.49041552      -7.34481973      -0.27096077
O        7.20021214       8.24559611       9.64734227       3.97307897       2.09189411      -0.94249826      247       0.00000000      -0.82300749       3.39658463       2.80553473
O        5.87864178      12.38737006      11.89848634       7.14327721       0.73405452      -0.57761883      248       0.00000000      -0.22512971       6.42966194       0.85228330
O        2.87474865      10.63166409      13.32493414      20.07009177       4.31633125      -2.82808017      249       0.00000000      -0.90921530      15.74534190      20.31676678
O       14.43536719      11.09662667      13.78510147       3.86211808      15.95966368      13.44116820      250       0.00000000     -35.36491131       1.34585666      -3.89513992
O        4.36156966       4.44838424       8.66019208     -17.14352916       3.76661846      -0.67837430      251       0.00000000      -0.70948009      -8.80592535       7.46759299
O        3.44371019       0.02472093       0.24565770     -22.16095737       0.99081825      -2.35432349      252       0.00000000      -2.55748391     -16.51377021     -35.43238465
O       13.45410949       0.02853696       4.06571374      -0.40533376      -6.09361033      13.51446262      253       0.00000000       7.05546530     -59.47639989      -1.20307802
O        2.26995020      12.62865702       4.84739463      -5.69970525      -0.00324408       3.64944372      254       0.00000000       2.37428699     -14.91517734       1.40439550
O        3.18891507       5.91514424       4.17032639       9.76316973       2.09627937     -12.43072611      255       0.00000000      -7.05573894      13.73051283       2.52604922
O       11.43102849       4.66927085       0.16086914     -10.21267477     -11.81147705       3.16030238      256       0.00000000       7.93859399       1.68162565     -49.52278111
O        6.91865524       3.00081563       6.45228249      -5.15111466      12.94969519      -1.48324120      257       0.00000000      -3.32250034      -2.45325421      12.07678207
O        8.63374543       2.87139494      12.59105836       2.27187498      -6.13820688      -3.18445585      258       0.00000000      -9.14063948       0.08958090      -5.52484572
O        9.27594534       4.28310174      10.41791975       8.60811818      -4.50303180       0.62016208      259       0.00000000       1.22968292       3.18873177      -5.16632172
O        1.32590002      10.76656098       8.79034940       4.55475525       0.89867711       5.88617907      260       0.00000000       2.19324566       5.32703006      -3.92594866
O        5.88219735       9.14312229       2.59981787       0.80704105      -4.52879401      -4.36105128      261       0.00000000      -2.80561630       1.60043134      -1.25268409
O        0.63557294       4.65756932       4.67565608       4.07174489     -12.03825639       4.36084427      262       0.00000000       4.86400644       4.06569222      -1.73766113
O        5.17133362       0.00000000       3.98237676       3.46159038      -0.74788972     -10.43743743      263       0.00000000       7.30720471     -27.61805311      -1.08065768
O       12.26564131       6.69277755       7.51264778       5.03116612      -9.69717272      -4.28036100      264       0.00000000      -8.19826660       4.48210493      -5.84390154
O        7.78625434      13.33532550      14.29360510      -1.81994378       2.13192004      -1.16727593      265       0.00000000      -1.06882610      -0.65003463       2.85436202
O        9.87318516       0.09995976      10.11149535      17.13891743       0.77357538     -32.82269702      266       0.00000000       8.45113008     -29.31180634       0.94157756
O        9.81822327       2.85716595       3.24337337      -4.07328983     -11.26815470      -0.86297313      267       0.00000000      -4.91903727      -3.29260031      -3.46381589
O        3.41380976       7.69778547      10.34070456      13.53068959      -5.88584806     -11.37643059      268       0.00000000      -5.16444577      10.07011564     -18.51064932
O        0.80413218       6.23362982      12.16901379      20.09787810       1.43971907      -1.67197360      269       0.00000000      -3.28905028      10.36096581      18.73784119
O        3.20844112       4.52891338      13.19152698     -13.78801782       0.45132441       2.89917147      270       0.00000000       1.03183286      -4.34749448       4.82667465
O        1.70679477       8.53875966       7.29374252      -2.44042079      -0.43772830       3.69088033      271       0.00000000       5.07229413      -2.85699235       4.52599399
O        1.52069356       5.78799972       8.72967809     -15.86191333       2.32716655       4.97360109      272       0.00000000       3.91280330     -10.51685400       7.12550182
O        4.52900299      13.40760924       6.54051602       4.65083411      -0.37702732      18.40157063      273       0.00000000       5.75044390       8.53281788      -0.56954926
O        0.70272889      12.72313329       7.05827208       6.88205127      -4.74687148     -11.31365483      274       0.00000000     -44.25982595      12.50893607      -4.11297057
O       12.38322205       7.28366738       2.54812780       1.84941982       3.84207086       0.01955831      275       0.00000000       0.69506743       6.03285983       0.38769034
O        7.38198410       1.62107781       4.18667772      -3.07849871      13.43933448       1.21013289      276       0.00000000       7.32098141       0.58365258       7.31654346
O        9.49702664       8.32432266       7.88238701      -1.65376618       2.19032454       3.97662019      277       0.00000000       4.53683374      -1.74648660       1.81793591
O        0.61296748      13.41649643       2.69731843      -2.11156830      -0.76334920      12.80105511      278       0.00000000       5.99097303     -11.01340785       3.51194114
O        3.22546775      13.23697477      12.62518358      -8.44233386       4.06476230      27.11056937      279       0.00000000       5.88721523      -8.62538243      15.20477990
O       13.99322381       7.95013121       8.90432950      -5.02743935      -9.31631774      -0.93397036      280       0.00000000      -5.19373453      -4.48869311      -8.31850652
O       13.68180772       0.76827460      13.22002206     -23.29354001     -14.50332570       3.11540704      281       0.00000000     -13.39939830       3.41038341     -13.48084377
O        2.79234831       3.45707796       2.38485003      -5.80206807       0.88001369      -4.89576023      282       0.00000000      -5.00398360      -9.24368605       0.45065840
O       10.60292610       9.12064626      10.86692722      14.30396469       5.03052238       0.51957765      283       0.00000000       0.31587899      12.03721340       4.75042879
O        2.67791898       7.06791975      14.18579334      17.36536989       1.49070372       3.24876106      284       0.00000000       0.76771579       1.12078118     -29.32725982
O        6.99685156       1.44338521       8.77675224       4.64969396      -2.80442939      -3.28274823      285       0.00000000     -18.12158347       0.74437179      -3.51783680
O       11.28381169       2.80631157      12.45056237      -7.14011126       7.98462327       0.31089700      286       0.00000000      -0.00747889      -1.42221064       7.88000492
O       11.12471362       6.41089881      10.06455104      -1.75093607       1.09769503      -2.59373095      287       0.00000000      -4.92063420      -1.07600506       0.81341762
O       12.60939756       1.61586712       1.83066588       0.84823476     -24.83301746       1.93597473      288       0.00000000      18.01561417       0.76817035      -4.02082599
O        5.49602471      10.86824228       7.28671003       1.01649383       0.95147400       1.78664740      289       0.00000000       0.89479788       1.43635204       1.26147862
O        3.65354213       6.34444135       6.97594007       4.32815339      -0.33788009      -2.63807699      290       0.00000000      -1.41301244       3.93634622      -0.50633470
O        3.02368429      10.05031458       5.60419978       0.23104490      -0.05628717       1.56897315      291       0.00000000       0.55667940       0.40356770       0.15362860
O       11.66210862       8.08068560       5.13226437      -1.37929085     -11.89296052       5.66537812      292       0.00000000       9.18216714      -2.17167607      -5.04015931
O       10.68991044      12.57321124       0.16622276      -1.67967868       2.34105881      -3.54888258      293       0.00000000      -1.75864480      -1.98050651      -1.09889309
O        3.62555147      10.31269254       1.27625481       0.59623721      -1.18439792      -3.79976529      294       0.00000000      -1.40937317       4.63101223       2.83164858
O       12.76024637       5.11573503      11.89724166       2.92111513       5.24276586       4.06314827      295       0.00000000      10.89493193       1.24478010       3.11292382
O       13.35939213       4.63554865       2.43335234       1.73258469     -18.61610700      -8.14425689      296       0.00000000     -22.31032957       4.94465019      -5.76756420
O        0.76843428       0.77876276       0.78204157      -1.60497124      -1.17118113      18.29964506      297       0.00000000      -6.45247445     -44.28727367      -2.94155688
O       12.65401888      10.28001085       9.39103917       2.24445591      -4.90874598      -2.27810425      298       0.00000000      -2.30167209       2.51086317      -3.29736480
O       12.03306629      11.92766080       4.17875287       2.18652589       6.02982278      -8.07249985      299       0.00000000      -7.74069438       4.94361516       2.02904077
O        8.43890356      10.80592161       7.03900181       1.42860912      -0.00939106      -4.77534476      300       0.00000000      -3.71299648       2.04523827      -0.00783321
O        1.05195383       5.40616078       1.09010983      -2.94397021      -2.79651743       7.06505413      301       0.00000000       1.54922264       2.84799691      -3.48925505
O       11.67800098      14.03953056      12.11052538       0.28702750      -3.12194097      11.85837409      302       0.00000000       8.32853657       1.74266816      -0.97835222
O        7.80866788      10.90551697       3.10979804      -4.59332934       9.81249582       8.02944676      303       0.00000000       5.69968000     -16.47852290       3.98850284
O       12.97258448      11.62208710       1.55409652       2.09013165     -16.39132053     -22.63161630      304       0.00000000     -27.92290842       8.49707029       0.44125964
O        6.18033976       0.80026282       0.94712947      -2.38030061       5.47491150       1.13242465      305       0.00000000       2.04181133      -2.46401396      -2.64723642
O       12.81833162      12.39228517       7.06187603      -1.62297775     -19.47388724      -6.47221454      306       0.00000000      -3.09043832      -3.63691677     -10.91748133
O       13.56344149       2.09552498       6.83304670      -3.59283067       5.27231230       1.05459111      307       0.00000000       7.85438722      -0.42944966       1.94581929
O        5.64467418       8.02790881       7.34713422      -0.30430766      -0.26931313       0.00570373      308       0.00000000       0.00401047      -0.33250436      -0.35053923
O        4.48336915       3.10167185       0.25658245     -47.76208174      -0.23898499      -0.04229183      309       0.00000000      -0.24108381      -1.10671310     -12.45425738
O        5.33303434       8.00982607      14.27128130      -6.21506401      -9.11561500       9.27007794      310       0.00000000       6.17212453      -4.37554933     -28.16494100
O        6.70480494       6.47051674       5.03164162     -16.73590954     -16.30814974       4.77230063      311       0.00000000       4.94509884     -21.52170156     -12.23822120
O        0.62454367       3.43843255       9.97339442     -24.02993631      -3.12051602       2.27100421      312       0.00000000     -46.35908987      -9.07253359       6.95168006
O        9.24950774       6.49556464       0.06352239       0.18251627      -4.74823661       1.54136000      313       0.00000000       2.19485480       1.17030852      -0.98169465
O        1.45455435       9.22110201      11.77933956       7.68898488      -1.73967957      -1.81207138      314       0.00000000       2.78000580       6.08614174      -3.00544787
O        8.18833081      10.27398761      11.49571888      -0.63454562       4.48693172      -3.87054523      315       0.00000000      -3.12505073      -1.54416445       5.90110194
O       11.26973058       4.70434545       4.53489390       0.45202675       6.58101583       3.16950085      316       0.00000000       7.25941615       0.26251322       2.59735857
O       11.76089702      14.63004037       8.11789119       0.08099094       9.65428476     -10.75095569      317       0.00000000      -6.91897308      -1.47777579       6.53338852
O        0.60731206      13.99228487      11.63566860      -0.01465185      -2.03244886      21.76807809      318       0.00000000       4.11256185       4.55211669     -20.37981148
O        4.07266086      10.45407653       9.59845862      -3.33008174       1.10837203      11.31077476      319       0.00000000       4.36544401      -3.83602955       2.55989203
O       14.56754082      10.38766175       5.63655224      -3.08719512      20.81717182     -20.08935982      320       0.00000000     -43.64645645      -6.06764910      -0.87965656
O        4.00291209       3.36343329      10.93993935     -13.33062357       7.53091749      -0.95764459      321       0.00000000      -1.10401939      -5.12306479      19.78372779
O        6.86119964       0.05336569      11.01807953      16.59448104       0.08409353     -13.61770890      322       0.00000000       3.12893509     -33.34543765      -0.17089004
O        5.90332112       2.30458797      12.45939600     -11.35554793      -2.31936772      -0.72524900      323       0.00000000      -1.34551051      -2.41557331      -5.46675355
